instances/p2/p2_10_8-1.dzn
Alphabet = {A,C,G,T};
ns = 10;
nc = 7;
neighbours = [| I(A),I(T),I(A),I(T),I(G),I(T),Null | I(C),I(G),I(A),I(T),I(T),I(A),Null | I(A),Null,Null,Null,Null,Null,Null | I(C),I(G),I(A),I(C),I(A),I(C),Null | I(T),I(A),I(T),I(C),I(A),Null,Null | I(A),I(T),Null,Null,Null,Null,Null | I(G),I(C),I(C),Null,Null,Null,Null | I(C),I(C),I(G),I(T),I(G),I(G),I(T) | I(G),I(G),I(T),I(C),I(C),I(A),I(G) | I(T),I(T),Null,Null,Null,Null,Null |];
