instances/p2/p2_10_8-1.txt
{
	"num_strings": 10,
	"alphabet": "ACGT",
	"strings": [
		"ATATGT",
		"CGATTA",
		"A",
		"CGACAC",
		"TATCA",
		"AT",
		"GCC",
		"CCGTGGT",
		"GGTCCAG",
		"TT"
	],
	"str_length":[6,6,1,6,5,2,3,7,7,2]
}